RAW/CMTT/fspd/CMT14T.vrp_seed-4.out
826.7733322	13.965	15.396
