RAW/CMTT/fspd/CMT14T.vrp_seed-4.sol
Route #1: 63 80 79 77 73 70 71 76 78 81
Route #2: 67 65 62 74 72 61 64 68 66 69
Route #3: 90 87 86 83 82 84 85 88 89 91
Route #4: 98 96 95 94 92 93 97 100 99 2
Route #5: 57 55 54 53 56 58 60 59 40 41
Route #6: 32 33 34 36 39 38 37 35 31 50
Route #7: 47 49 52 51 48 46 45 44 42 43
Route #8: 23 13 17 18 19 15 16 14 12 10
Route #9: 21 22 26 28 30 29 27 25 24 20
Route #10: 5 3 7 8 11 9 6 4 1 75
Cost 826.773332